AES/1_4_4/ssaes_r1-20_c4_rw1_e4_f0_k1-20_aes_min_box_aes_mc_bidirectional/ExperimentMinisat_r9_k6cnf_2011-11-18-082923/Result
WARNING: for repeatability, setting FPU to use double precision
============================[ Problem Statistics ]=============================
|                                                                             |
|  Number of variables:           696                                         |
|  Number of clauses:            2782                                         |
|  Parse time:                   0.00 s                                       |
|  Eliminated clauses:           0.01 Mb                                      |
|  Simplification time:          0.00 s                                       |
|                                                                             |
=============================[ Search Statistics ]==============================
| Conflicts  |          ORIGINAL         |          LEARNT          | Progress |
|            |    Vars  Clauses Literals |    Limit  Clauses Lit/Cl |          |
================================================================================
|        100 |     468     2110     7018 |      773      100      9 |  9.771 % |
|        250 |     468     2110     7018 |      851      250     10 |  9.771 % |
|        475 |     468     2110     7018 |      936      475     12 |  9.770 % |
|        812 |     468     2110     7018 |     1029      812     14 |  9.770 % |
|       1318 |     468     2110     7018 |     1132      751     13 |  9.770 % |
|       2077 |     468     2110     7018 |     1245      899     13 |  9.770 % |
|       3216 |     468     2110     7018 |     1370      697      8 |  9.770 % |
|       4924 |     468     2110     7018 |     1507      937     10 |  9.770 % |
|       7486 |     468     2110     7018 |     1658     1087     11 |  9.770 % |
|      11330 |     468     2110     7018 |     1824     1420     11 |  9.770 % |
|      17096 |     468     2110     7018 |     2006     1403     11 |  9.770 % |
|      25745 |     468     2110     7018 |     2207     1636     12 |  9.770 % |
|      38719 |     468     2110     7018 |     2428     1980     12 |  9.770 % |
|      58180 |     468     2110     7018 |     2670     1283      9 |  9.770 % |
===============================================================================
restarts              : 254
conflicts             : 83640          (23289 /sec)
decisions             : 92265          (0.00 % random) (25690 /sec)
propagations          : 18825435       (5241731 /sec)
conflict literals     : 1508592        (47.06 % deleted)
Memory used           : 8.00 MB
CPU time              : 3.59145 s

SATISFIABLE
